% Generated by MiniZinc 2.9.3
% Solver library: /home/void/Workspace-Research/Code/fzn-minicpp/minizinc
% Command line invocation: minizinc --solver org.minicpp.ml --compile --no-output-ozn rcpsp-sat.mzn dzn/J60_30_1.dzn -D makespan=70 -o fzn-sat/J60_30_1.fzn 

predicate minicpp_cumulative(array [int] of var int: s,array [int] of var int: d,array [int] of var int: r,var int: b);
array [1..2] of int: X_INTRODUCED_78_ = [1,-1];
array [1..60] of int: X_INTRODUCED_135_ = [7,1,9,4,5,7,7,10,9,10,1,8,1,5,1,7,3,2,6,6,8,2,5,9,4,7,5,1,9,5,7,4,9,2,8,6,3,10,4,3,8,5,8,5,4,2,3,9,10,5,5,2,2,6,8,1,5,9,5,7];
array [1..60] of int: X_INTRODUCED_136_ = [2,10,5,4,2,7,1,9,5,7,1,8,4,4,2,9,4,8,1,7,10,6,6,9,4,1,3,7,1,1,3,8,3,10,2,9,9,7,8,8,2,2,5,3,1,5,8,9,1,2,6,3,2,1,5,6,5,9,10,1];
array [1..60] of int: X_INTRODUCED_137_ = [5,10,1,8,3,1,3,8,7,3,10,8,4,6,8,10,2,8,4,5,2,10,4,3,6,1,10,2,9,7,10,3,1,8,2,6,2,4,7,6,3,6,5,9,1,1,4,9,1,2,6,9,5,10,3,8,2,7,3,6];
array [1..60] of int: X_INTRODUCED_138_ = [1,5,7,6,1,7,1,7,9,5,2,5,9,9,7,2,1,4,2,7,3,7,6,9,10,9,8,8,2,3,7,3,9,6,2,5,4,5,10,6,7,10,2,1,5,7,5,4,6,10,4,2,9,3,8,5,6,1,6,10];
array [1..60] of int: X_INTRODUCED_139_ = [3,10,5,4,2,6,3,10,10,1,9,6,8,3,6,9,2,9,4,7,10,3,1,6,3,4,10,7,10,9,1,10,9,9,7,3,6,9,5,4,6,1,7,7,10,3,3,3,6,4,3,1,7,10,8,3,8,10,1,4];
var 0..300: X_INTRODUCED_16_;
var 0..300: X_INTRODUCED_17_;
var 0..300: X_INTRODUCED_18_;
var 0..300: X_INTRODUCED_19_;
var 0..300: X_INTRODUCED_20_;
var 0..300: X_INTRODUCED_21_;
var 0..300: X_INTRODUCED_22_;
var 0..300: X_INTRODUCED_23_;
var 0..300: X_INTRODUCED_24_;
var 0..300: X_INTRODUCED_25_;
var 0..300: X_INTRODUCED_26_;
var 0..300: X_INTRODUCED_27_;
var 0..300: X_INTRODUCED_28_;
var 0..300: X_INTRODUCED_29_;
var 0..300: X_INTRODUCED_30_;
var 0..300: X_INTRODUCED_31_;
var 0..300: X_INTRODUCED_32_;
var 0..300: X_INTRODUCED_33_;
var 0..300: X_INTRODUCED_34_;
var 0..300: X_INTRODUCED_35_;
var 0..300: X_INTRODUCED_36_;
var 0..300: X_INTRODUCED_37_;
var 0..300: X_INTRODUCED_38_;
var 0..300: X_INTRODUCED_39_;
var 0..300: X_INTRODUCED_40_;
var 0..300: X_INTRODUCED_41_;
var 0..300: X_INTRODUCED_42_;
var 0..300: X_INTRODUCED_43_;
var 0..300: X_INTRODUCED_44_;
var 0..300: X_INTRODUCED_45_;
var 0..300: X_INTRODUCED_46_;
var 0..300: X_INTRODUCED_47_;
var 0..300: X_INTRODUCED_48_;
var 0..300: X_INTRODUCED_49_;
var 0..300: X_INTRODUCED_50_;
var 0..300: X_INTRODUCED_51_;
var 0..300: X_INTRODUCED_52_;
var 0..300: X_INTRODUCED_53_;
var 0..300: X_INTRODUCED_54_;
var 0..300: X_INTRODUCED_55_;
var 0..300: X_INTRODUCED_56_;
var 0..300: X_INTRODUCED_57_;
var 0..300: X_INTRODUCED_58_;
var 0..300: X_INTRODUCED_59_;
var 0..300: X_INTRODUCED_60_;
var 0..300: X_INTRODUCED_61_;
var 0..300: X_INTRODUCED_62_;
var 0..300: X_INTRODUCED_63_;
var 0..300: X_INTRODUCED_64_;
var 0..300: X_INTRODUCED_65_;
var 0..300: X_INTRODUCED_66_;
var 0..300: X_INTRODUCED_67_;
var 0..300: X_INTRODUCED_68_;
var 0..300: X_INTRODUCED_69_;
var 0..300: X_INTRODUCED_70_;
var 0..300: X_INTRODUCED_71_;
var 0..300: X_INTRODUCED_72_;
var 0..61: X_INTRODUCED_73_;
var 0..60: X_INTRODUCED_74_;
var 0..69: X_INTRODUCED_75_;
array [1..60] of var int: s:: output_array([1..60]) = [X_INTRODUCED_16_,X_INTRODUCED_17_,X_INTRODUCED_18_,X_INTRODUCED_19_,X_INTRODUCED_20_,X_INTRODUCED_21_,X_INTRODUCED_22_,X_INTRODUCED_23_,X_INTRODUCED_24_,X_INTRODUCED_25_,X_INTRODUCED_26_,X_INTRODUCED_27_,X_INTRODUCED_28_,X_INTRODUCED_29_,X_INTRODUCED_30_,X_INTRODUCED_31_,X_INTRODUCED_32_,X_INTRODUCED_33_,X_INTRODUCED_34_,X_INTRODUCED_35_,X_INTRODUCED_36_,X_INTRODUCED_37_,X_INTRODUCED_38_,X_INTRODUCED_39_,X_INTRODUCED_40_,X_INTRODUCED_41_,X_INTRODUCED_42_,X_INTRODUCED_43_,X_INTRODUCED_44_,X_INTRODUCED_45_,X_INTRODUCED_46_,X_INTRODUCED_47_,X_INTRODUCED_48_,X_INTRODUCED_49_,X_INTRODUCED_50_,X_INTRODUCED_51_,X_INTRODUCED_52_,X_INTRODUCED_53_,X_INTRODUCED_54_,X_INTRODUCED_55_,X_INTRODUCED_56_,X_INTRODUCED_57_,X_INTRODUCED_58_,X_INTRODUCED_59_,X_INTRODUCED_60_,X_INTRODUCED_61_,X_INTRODUCED_62_,X_INTRODUCED_63_,X_INTRODUCED_64_,X_INTRODUCED_65_,X_INTRODUCED_66_,X_INTRODUCED_67_,X_INTRODUCED_68_,X_INTRODUCED_69_,X_INTRODUCED_70_,X_INTRODUCED_71_,X_INTRODUCED_72_,X_INTRODUCED_73_,X_INTRODUCED_74_,X_INTRODUCED_75_];
constraint int_lin_le(X_INTRODUCED_78_,[X_INTRODUCED_16_,X_INTRODUCED_19_],-2);
constraint int_lin_le(X_INTRODUCED_78_,[X_INTRODUCED_17_,X_INTRODUCED_21_],-10);
constraint int_lin_le(X_INTRODUCED_78_,[X_INTRODUCED_17_,X_INTRODUCED_48_],-10);
constraint int_lin_le(X_INTRODUCED_78_,[X_INTRODUCED_17_,X_INTRODUCED_54_],-10);
constraint int_lin_le(X_INTRODUCED_78_,[X_INTRODUCED_18_,X_INTRODUCED_20_],-5);
constraint int_lin_le(X_INTRODUCED_78_,[X_INTRODUCED_18_,X_INTRODUCED_23_],-5);
constraint int_lin_le(X_INTRODUCED_78_,[X_INTRODUCED_18_,X_INTRODUCED_28_],-5);
constraint int_lin_le(X_INTRODUCED_78_,[X_INTRODUCED_19_,X_INTRODUCED_25_],-4);
constraint int_lin_le(X_INTRODUCED_78_,[X_INTRODUCED_19_,X_INTRODUCED_31_],-4);
constraint int_lin_le(X_INTRODUCED_78_,[X_INTRODUCED_19_,X_INTRODUCED_68_],-4);
constraint int_lin_le(X_INTRODUCED_78_,[X_INTRODUCED_20_,X_INTRODUCED_29_],-2);
constraint int_lin_le(X_INTRODUCED_78_,[X_INTRODUCED_20_,X_INTRODUCED_30_],-2);
constraint int_lin_le(X_INTRODUCED_78_,[X_INTRODUCED_20_,X_INTRODUCED_45_],-2);
constraint int_lin_le(X_INTRODUCED_78_,[X_INTRODUCED_21_,X_INTRODUCED_22_],-7);
constraint int_lin_le(X_INTRODUCED_78_,[X_INTRODUCED_21_,X_INTRODUCED_33_],-7);
constraint int_lin_le(X_INTRODUCED_78_,[X_INTRODUCED_22_,X_INTRODUCED_45_],-1);
constraint int_lin_le(X_INTRODUCED_78_,[X_INTRODUCED_22_,X_INTRODUCED_47_],-1);
constraint int_lin_le(X_INTRODUCED_78_,[X_INTRODUCED_23_,X_INTRODUCED_24_],-9);
constraint int_lin_le(X_INTRODUCED_78_,[X_INTRODUCED_23_,X_INTRODUCED_26_],-9);
constraint int_lin_le(X_INTRODUCED_78_,[X_INTRODUCED_23_,X_INTRODUCED_63_],-9);
constraint int_lin_le(X_INTRODUCED_78_,[X_INTRODUCED_24_,X_INTRODUCED_40_],-5);
constraint int_lin_le(X_INTRODUCED_78_,[X_INTRODUCED_24_,X_INTRODUCED_42_],-5);
constraint int_lin_le(X_INTRODUCED_78_,[X_INTRODUCED_25_,X_INTRODUCED_41_],-7);
constraint int_lin_le(X_INTRODUCED_78_,[X_INTRODUCED_25_,X_INTRODUCED_60_],-7);
constraint int_lin_le(X_INTRODUCED_78_,[X_INTRODUCED_26_,X_INTRODUCED_27_],-1);
constraint int_lin_le(X_INTRODUCED_78_,[X_INTRODUCED_27_,X_INTRODUCED_34_],-8);
constraint int_lin_le(X_INTRODUCED_78_,[X_INTRODUCED_27_,X_INTRODUCED_54_],-8);
constraint int_lin_le(X_INTRODUCED_78_,[X_INTRODUCED_28_,X_INTRODUCED_31_],-4);
constraint int_lin_le(X_INTRODUCED_78_,[X_INTRODUCED_28_,X_INTRODUCED_32_],-4);
constraint int_lin_le(X_INTRODUCED_78_,[X_INTRODUCED_28_,X_INTRODUCED_53_],-4);
constraint int_lin_le(X_INTRODUCED_78_,[X_INTRODUCED_29_,X_INTRODUCED_49_],-4);
constraint int_lin_le(X_INTRODUCED_78_,[X_INTRODUCED_29_,X_INTRODUCED_60_],-4);
constraint int_lin_le(X_INTRODUCED_78_,[X_INTRODUCED_29_,X_INTRODUCED_75_],-4);
constraint int_lin_le(X_INTRODUCED_78_,[X_INTRODUCED_30_,X_INTRODUCED_33_],-2);
constraint int_lin_le(X_INTRODUCED_78_,[X_INTRODUCED_30_,X_INTRODUCED_36_],-2);
constraint int_lin_le(X_INTRODUCED_78_,[X_INTRODUCED_30_,X_INTRODUCED_44_],-2);
constraint int_lin_le(X_INTRODUCED_78_,[X_INTRODUCED_31_,X_INTRODUCED_43_],-9);
constraint int_lin_le(X_INTRODUCED_78_,[X_INTRODUCED_31_,X_INTRODUCED_65_],-9);
constraint int_lin_le(X_INTRODUCED_78_,[X_INTRODUCED_32_,X_INTRODUCED_47_],-4);
constraint int_lin_le(X_INTRODUCED_78_,[X_INTRODUCED_32_,X_INTRODUCED_63_],-4);
constraint int_lin_le(X_INTRODUCED_78_,[X_INTRODUCED_32_,X_INTRODUCED_74_],-4);
constraint int_lin_le(X_INTRODUCED_78_,[X_INTRODUCED_33_,X_INTRODUCED_37_],-8);
constraint int_lin_le(X_INTRODUCED_78_,[X_INTRODUCED_33_,X_INTRODUCED_38_],-8);
constraint int_lin_le(X_INTRODUCED_78_,[X_INTRODUCED_33_,X_INTRODUCED_39_],-8);
constraint int_lin_le(X_INTRODUCED_78_,[X_INTRODUCED_34_,X_INTRODUCED_35_],-1);
constraint int_lin_le(X_INTRODUCED_78_,[X_INTRODUCED_34_,X_INTRODUCED_39_],-1);
constraint int_lin_le(X_INTRODUCED_78_,[X_INTRODUCED_35_,X_INTRODUCED_50_],-7);
constraint int_lin_le(X_INTRODUCED_78_,[X_INTRODUCED_35_,X_INTRODUCED_57_],-7);
constraint int_lin_le(X_INTRODUCED_78_,[X_INTRODUCED_35_,X_INTRODUCED_72_],-7);
constraint int_lin_le(X_INTRODUCED_78_,[X_INTRODUCED_36_,X_INTRODUCED_46_],-10);
constraint int_lin_le(X_INTRODUCED_78_,[X_INTRODUCED_36_,X_INTRODUCED_47_],-10);
constraint int_lin_le(X_INTRODUCED_78_,[X_INTRODUCED_36_,X_INTRODUCED_57_],-10);
constraint int_lin_le(X_INTRODUCED_78_,[X_INTRODUCED_37_,X_INTRODUCED_51_],-6);
constraint int_lin_le(X_INTRODUCED_78_,[X_INTRODUCED_38_,X_INTRODUCED_58_],-6);
constraint int_lin_le(X_INTRODUCED_78_,[X_INTRODUCED_38_,X_INTRODUCED_73_],-6);
constraint int_lin_le(X_INTRODUCED_78_,[X_INTRODUCED_39_,X_INTRODUCED_52_],-9);
constraint int_lin_le(X_INTRODUCED_78_,[X_INTRODUCED_39_,X_INTRODUCED_64_],-9);
constraint int_lin_le(X_INTRODUCED_78_,[X_INTRODUCED_40_,X_INTRODUCED_43_],-4);
constraint int_lin_le(X_INTRODUCED_78_,[X_INTRODUCED_41_,X_INTRODUCED_43_],-1);
constraint int_lin_le(X_INTRODUCED_78_,[X_INTRODUCED_41_,X_INTRODUCED_45_],-1);
constraint int_lin_le(X_INTRODUCED_78_,[X_INTRODUCED_42_,X_INTRODUCED_56_],-3);
constraint int_lin_le(X_INTRODUCED_78_,[X_INTRODUCED_42_,X_INTRODUCED_58_],-3);
constraint int_lin_le(X_INTRODUCED_78_,[X_INTRODUCED_42_,X_INTRODUCED_69_],-3);
constraint int_lin_le(X_INTRODUCED_78_,[X_INTRODUCED_43_,X_INTRODUCED_52_],-7);
constraint int_lin_le(X_INTRODUCED_78_,[X_INTRODUCED_43_,X_INTRODUCED_56_],-7);
constraint int_lin_le(X_INTRODUCED_78_,[X_INTRODUCED_44_,X_INTRODUCED_60_],-1);
constraint int_lin_le(X_INTRODUCED_78_,[X_INTRODUCED_45_,X_INTRODUCED_51_],-1);
constraint int_lin_le(X_INTRODUCED_78_,[X_INTRODUCED_45_,X_INTRODUCED_61_],-1);
constraint int_lin_le(X_INTRODUCED_78_,[X_INTRODUCED_45_,X_INTRODUCED_69_],-1);
constraint int_lin_le(X_INTRODUCED_78_,[X_INTRODUCED_46_,X_INTRODUCED_55_],-3);
constraint int_lin_le(X_INTRODUCED_78_,[X_INTRODUCED_47_,X_INTRODUCED_55_],-8);
constraint int_lin_le(X_INTRODUCED_78_,[X_INTRODUCED_47_,X_INTRODUCED_62_],-8);
constraint int_lin_le(X_INTRODUCED_78_,[X_INTRODUCED_48_,X_INTRODUCED_49_],-3);
constraint int_lin_le(X_INTRODUCED_78_,[X_INTRODUCED_49_,X_INTRODUCED_62_],-10);
constraint int_lin_le(X_INTRODUCED_78_,[X_INTRODUCED_50_,X_INTRODUCED_53_],-2);
constraint int_lin_le(X_INTRODUCED_78_,[X_INTRODUCED_50_,X_INTRODUCED_66_],-2);
constraint int_lin_le(X_INTRODUCED_78_,[X_INTRODUCED_50_,X_INTRODUCED_68_],-2);
constraint int_lin_le(X_INTRODUCED_78_,[X_INTRODUCED_51_,X_INTRODUCED_53_],-9);
constraint int_lin_le(X_INTRODUCED_78_,[X_INTRODUCED_52_,X_INTRODUCED_55_],-9);
constraint int_lin_le(X_INTRODUCED_78_,[X_INTRODUCED_52_,X_INTRODUCED_61_],-9);
constraint int_lin_le(X_INTRODUCED_78_,[X_INTRODUCED_53_,X_INTRODUCED_75_],-7);
constraint int_lin_le(X_INTRODUCED_78_,[X_INTRODUCED_54_,X_INTRODUCED_57_],-8);
constraint int_lin_le(X_INTRODUCED_78_,[X_INTRODUCED_54_,X_INTRODUCED_66_],-8);
constraint int_lin_le(X_INTRODUCED_78_,[X_INTRODUCED_55_,X_INTRODUCED_67_],-8);
constraint int_lin_le(X_INTRODUCED_78_,[X_INTRODUCED_56_,X_INTRODUCED_59_],-2);
constraint int_lin_le(X_INTRODUCED_78_,[X_INTRODUCED_56_,X_INTRODUCED_66_],-2);
constraint int_lin_le(X_INTRODUCED_78_,[X_INTRODUCED_57_,X_INTRODUCED_61_],-2);
constraint int_lin_le(X_INTRODUCED_78_,[X_INTRODUCED_57_,X_INTRODUCED_64_],-2);
constraint int_lin_le(X_INTRODUCED_78_,[X_INTRODUCED_58_,X_INTRODUCED_71_],-5);
constraint int_lin_le(X_INTRODUCED_78_,[X_INTRODUCED_59_,X_INTRODUCED_74_],-3);
constraint int_lin_le(X_INTRODUCED_78_,[X_INTRODUCED_60_,X_INTRODUCED_72_],-1);
constraint int_lin_le(X_INTRODUCED_78_,[X_INTRODUCED_61_,X_INTRODUCED_62_],-5);
constraint int_lin_le(X_INTRODUCED_78_,[X_INTRODUCED_62_,X_INTRODUCED_70_],-8);
constraint int_lin_le(X_INTRODUCED_78_,[X_INTRODUCED_63_,X_INTRODUCED_67_],-9);
constraint int_lin_le(X_INTRODUCED_78_,[X_INTRODUCED_63_,X_INTRODUCED_68_],-9);
constraint int_lin_le(X_INTRODUCED_78_,[X_INTRODUCED_64_,X_INTRODUCED_65_],-1);
constraint int_lin_le(X_INTRODUCED_78_,[X_INTRODUCED_64_,X_INTRODUCED_70_],-1);
constraint int_lin_le(X_INTRODUCED_78_,[X_INTRODUCED_65_,X_INTRODUCED_69_],-2);
constraint int_lin_le(X_INTRODUCED_78_,[X_INTRODUCED_66_,X_INTRODUCED_71_],-6);
constraint int_lin_le(X_INTRODUCED_78_,[X_INTRODUCED_67_,X_INTRODUCED_72_],-3);
constraint int_lin_le(X_INTRODUCED_78_,[X_INTRODUCED_68_,X_INTRODUCED_70_],-2);
constraint int_lin_le(X_INTRODUCED_78_,[X_INTRODUCED_68_,X_INTRODUCED_75_],-2);
constraint int_lin_le(X_INTRODUCED_78_,[X_INTRODUCED_69_,X_INTRODUCED_71_],-1);
constraint int_lin_le(X_INTRODUCED_78_,[X_INTRODUCED_70_,X_INTRODUCED_73_],-5);
constraint int_lin_le(X_INTRODUCED_78_,[X_INTRODUCED_71_,X_INTRODUCED_74_],-6);
constraint int_lin_le(X_INTRODUCED_78_,[X_INTRODUCED_72_,X_INTRODUCED_73_],-5);
constraint minicpp_cumulative(s,X_INTRODUCED_136_,X_INTRODUCED_135_,35);
constraint minicpp_cumulative(s,X_INTRODUCED_136_,X_INTRODUCED_137_,36);
constraint minicpp_cumulative(s,X_INTRODUCED_136_,X_INTRODUCED_138_,30);
constraint minicpp_cumulative(s,X_INTRODUCED_136_,X_INTRODUCED_139_,35);
solve :: int_search(s,smallest,indomain_min,complete) satisfy;
